1664037
29 1 6204
1 27 6275
27 3 9482
3 17 7922
17 4 5422
4 13 14272
13 25 12452
25 21 11584
21 18 8375
18 19 59143
19 0 190821
0 23 54636
23 10 268604
10 15 17050
15 12 41667
12 24 1644
24 8 14389
8 28 60619
28 5 63999
5 14 10550
14 20 19591
20 22 92634
22 9 54017
9 16 52694
16 2 183239
2 26 4945
26 11 88213
11 7 61690
7 6 103045
6 29 194909
